%SETS
JOBS     = 1..100;
MACHINES = 1..5;
SPEED    = 5;

time        = array3d(JOBS,MACHINES,1..SPEED,[23, 8, 5, 4, 4, 19, 6, 4, 3, 3, 14, 4, 3, 2, 2, 10, 3, 2, 2, 1, 25, 8, 6, 5, 4, 14, 5, 3, 3, 2, 34, 11, 8, 7, 6, 18, 6, 4, 3, 3, 22, 7, 5, 4, 4, 26, 9, 6, 5, 4, 119, 41, 29, 24, 21, 44, 15, 10, 9, 7, 13, 4, 3, 2, 2, 54, 18, 13, 10, 9, 44, 15, 11, 9, 8, 1, 1, 1, 1, 1, 32, 11, 8, 6, 5, 41, 14, 10, 8, 7, 34, 11, 8, 7, 6, 31, 11, 7, 6, 5, 20, 6, 4, 4, 3, 3, 1, 1, 1, 1, 81, 28, 20, 16, 14, 13, 4, 3, 2, 2, 6, 2, 1, 1, 1, 32, 11, 8, 6, 5, 133, 46, 32, 27, 23, 7, 2, 1, 1, 1, 28, 9, 7, 5, 5, 23, 8, 5, 4, 4, 32, 11, 8, 6, 5, 71, 24, 17, 14, 12, 11, 3, 2, 2, 2, 7, 2, 1, 1, 1, 13, 4, 3, 2, 2, 35, 12, 8, 7, 6, 33, 11, 8, 6, 5, 13, 4, 3, 2, 2, 117, 40, 28, 23, 21, 15, 5, 3, 3, 2, 12, 4, 2, 2, 2, 32, 11, 7, 6, 5, 2, 1, 1, 1, 1, 13, 4, 3, 2, 2, 38, 13, 9, 7, 6, 37, 12, 9, 7, 6, 8, 2, 2, 1, 1, 5, 1, 1, 1, 1, 16, 5, 4, 3, 2, 10, 3, 2, 2, 1, 34, 11, 8, 6, 6, 5, 1, 1, 1, 1, 10, 3, 2, 2, 1, 48, 16, 11, 9, 8, 24, 8, 6, 5, 4, 56, 19, 13, 11, 10, 97, 33, 23, 19, 17, 46, 16, 11, 9, 8, 5, 1, 1, 1, 1, 24, 8, 6, 5, 4, 16, 5, 4, 3, 3, 13, 4, 3, 2, 2, 35, 12, 8, 7, 6, 45, 15, 11, 9, 8, 29, 10, 7, 6, 5, 3, 1, 1, 1, 1, 31, 10, 7, 6, 5, 1, 1, 1, 1, 1, 5, 1, 1, 1, 1, 66, 23, 16, 13, 12, 13, 4, 3, 2, 2, 4, 1, 1, 1, 1, 29, 10, 7, 6, 5, 4, 1, 1, 1, 1, 27, 9, 6, 5, 4, 7, 2, 1, 1, 1, 1, 1, 1, 1, 1, 82, 28, 20, 16, 14, 1, 1, 1, 1, 1, 18, 6, 4, 3, 3, 10, 3, 2, 2, 1, 27, 9, 6, 5, 5, 48, 16, 11, 9, 8, 23, 8, 5, 4, 4, 22, 7, 5, 4, 4, 3, 1, 1, 1, 1, 32, 11, 7, 6, 5, 5, 2, 1, 1, 1, 17, 6, 4, 3, 3, 1, 1, 1, 1, 1, 9, 3, 2, 1, 1, 51, 17, 12, 10, 9, 21, 7, 5, 4, 3, 20, 7, 5, 4, 3, 11, 4, 2, 2, 2, 45, 15, 11, 9, 8, 8, 2, 2, 1, 1, 3, 1, 1, 1, 1, 21, 7, 5, 4, 3, 8, 2, 1, 1, 1, 38, 13, 9, 7, 6, 5, 1, 1, 1, 1, 39, 13, 9, 8, 7, 24, 8, 5, 4, 4, 1, 1, 1, 1, 1, 21, 7, 5, 4, 3, 28, 9, 6, 5, 5, 72, 24, 17, 14, 12, 39, 13, 9, 8, 7, 35, 12, 8, 7, 6, 17, 6, 4, 3, 3, 1, 1, 1, 1, 1, 43, 15, 10, 8, 7, 1, 1, 1, 1, 1, 20, 7, 5, 4, 3, 21, 7, 5, 4, 3, 3, 1, 1, 1, 1, 1, 1, 1, 1, 1, 22, 7, 5, 4, 3, 17, 5, 4, 3, 3, 9, 3, 2, 1, 1, 1, 1, 1, 1, 1, 26, 8, 6, 5, 4, 3, 1, 1, 1, 1, 1, 1, 1, 1, 1, 8, 2, 2, 1, 1, 9, 3, 2, 1, 1, 5, 1, 1, 1, 1, 1, 1, 1, 1, 1, 39, 13, 9, 7, 7, 13, 4, 3, 2, 2, 7, 2, 1, 1, 1, 19, 6, 4, 3, 3, 7, 2, 1, 1, 1, 49, 17, 12, 10, 8, 17, 5, 4, 3, 3, 25, 8, 6, 5, 4, 93, 32, 22, 19, 16, 11, 3, 2, 2, 2, 6, 2, 1, 1, 1, 99, 34, 24, 20, 17, 22, 7, 5, 4, 4, 103, 35, 25, 21, 18, 89, 30, 21, 18, 16, 31, 10, 7, 6, 5, 1, 1, 1, 1, 1, 24, 8, 6, 4, 4, 7, 2, 1, 1, 1, 3, 1, 1, 1, 1, 11, 4, 2, 2, 2, 5, 1, 1, 1, 1, 37, 12, 9, 7, 6, 70, 24, 17, 14, 12, 1, 1, 1, 1, 1, 7, 2, 1, 1, 1, 8, 2, 1, 1, 1, 3, 1, 1, 1, 1, 78, 27, 19, 15, 14, 7, 2, 1, 1, 1, 11, 3, 2, 2, 2, 1, 1, 1, 1, 1, 7, 2, 1, 1, 1, 55, 19, 13, 11, 9, 86, 29, 21, 17, 15, 27, 9, 6, 5, 4, 9, 3, 2, 1, 1, 1, 1, 1, 1, 1, 51, 17, 12, 10, 9, 4, 1, 1, 1, 1, 8, 2, 1, 1, 1, 20, 7, 5, 4, 3, 7, 2, 1, 1, 1, 48, 16, 11, 9, 8, 18, 6, 4, 3, 3, 17, 5, 4, 3, 3, 60, 21, 14, 12, 10, 63, 22, 15, 12, 11, 7, 2, 1, 1, 1, 1, 1, 1, 1, 1, 28, 9, 7, 5, 5, 8, 2, 1, 1, 1, 1, 1, 1, 1, 1, 2, 1, 1, 1, 1, 14, 4, 3, 2, 2, 3, 1, 1, 1, 1, 6, 2, 1, 1, 1, 35, 12, 8, 7, 6, 15, 5, 3, 3, 2, 3, 1, 1, 1, 1, 6, 2, 1, 1, 1, 68, 23, 16, 14, 12, 1, 1, 1, 1, 1, 26, 9, 6, 5, 4, 26, 9, 6, 5, 4, 29, 10, 7, 6, 5, 22, 7, 5, 4, 4, 39, 13, 9, 8, 7, 44, 15, 10, 9, 8, 26, 9, 6, 5, 4, 5, 1, 1, 1, 1, 33, 11, 8, 6, 6, 8, 2, 2, 1, 1, 47, 16, 11, 9, 8, 21, 7, 5, 4, 3, 2, 1, 1, 1, 1, 62, 21, 15, 12, 11, 16, 5, 3, 3, 2, 74, 25, 18, 15, 13, 1, 1, 1, 1, 1, 2, 1, 1, 1, 1, 36, 12, 8, 7, 6, 1, 1, 1, 1, 1, 15, 5, 3, 3, 2, 43, 15, 10, 8, 7, 14, 4, 3, 2, 2, 5, 1, 1, 1, 1, 47, 16, 11, 9, 8, 2, 1, 1, 1, 1, 8, 3, 2, 1, 1, 6, 2, 1, 1, 1, 16, 5, 3, 3, 2, 9, 3, 2, 2, 1, 62, 21, 15, 12, 11, 39, 13, 9, 8, 7, 31, 10, 7, 6, 5, 3, 1, 1, 1, 1, 24, 8, 5, 4, 4, 49, 17, 12, 10, 8, 66, 23, 16, 13, 11, 28, 9, 6, 5, 5, 7, 2, 1, 1, 1, 8, 2, 2, 1, 1, 26, 9, 6, 5, 4, 33, 11, 8, 6, 6, 9, 3, 2, 1, 1, 29, 10, 7, 5, 5, 18, 6, 4, 3, 3, 45, 15, 11, 9, 8, 29, 10, 7, 6, 5, 62, 21, 15, 12, 11, 3, 1, 1, 1, 1, 47, 16, 11, 9, 8, 76, 26, 18, 15, 13, 22, 7, 5, 4, 3, 1, 1, 1, 1, 1, 1, 1, 1, 1, 1, 13, 4, 3, 2, 2, 15, 5, 3, 3, 2, 16, 5, 4, 3, 3, 29, 10, 7, 6, 5, 36, 12, 8, 7, 6, 44, 15, 10, 9, 8, 11, 3, 2, 2, 1, 24, 8, 6, 5, 4, 12, 4, 3, 2, 2, 33, 11, 8, 6, 6, 21, 7, 5, 4, 3, 23, 8, 5, 4, 4, 12, 4, 3, 2, 2, 26, 8, 6, 5, 4, 52, 18, 12, 10, 9, 27, 9, 6, 5, 4, 3, 1, 1, 1, 1, 2, 1, 1, 1, 1, 29, 10, 7, 5, 5, 11, 3, 2, 2, 2, 9, 3, 2, 1, 1, 57, 19, 13, 11, 10, 51, 17, 12, 10, 9, 42, 14, 10, 8, 7, 11, 3, 2, 2, 2, 26, 9, 6, 5, 4, 23, 8, 5, 4, 4, 6, 2, 1, 1, 1, 23, 7, 5, 4, 4, 150, 51, 36, 30, 27, 1, 1, 1, 1, 1, 7, 2, 1, 1, 1, 10, 3, 2, 2, 1, 41, 14, 10, 8, 7, 15, 5, 3, 3, 2, 1, 1, 1, 1, 1, 9, 3, 2, 2, 1, 45, 15, 11, 9, 8, 34, 11, 8, 7, 6, 8, 2, 2, 1, 1, 33, 11, 8, 6, 6, 9, 3, 2, 2, 1, 4, 1, 1, 1, 1, 108, 37, 26, 22, 19, 7, 2, 1, 1, 1, 24, 8, 5, 4, 4, 64, 22, 15, 13, 11, 26, 9, 6, 5, 4, 14, 4, 3, 2, 2, 13, 4, 3, 2, 2, 1, 1, 1, 1, 1, 2, 1, 1, 1, 1, 15, 5, 3, 3, 2, 66, 22, 16, 13, 11, 6, 2, 1, 1, 1, 52, 18, 12, 10, 9, 42, 14, 10, 8, 7, 4, 1, 1, 1, 1, 9, 3, 2, 1, 1, 14, 4, 3, 2, 2, 50, 17, 12, 10, 9, 26, 8, 6, 5, 4, 45, 15, 11, 9, 8, 17, 6, 4, 3, 3, 22, 7, 5, 4, 4, 15, 5, 3, 3, 2, 7, 2, 1, 1, 1, 24, 8, 6, 5, 4, 22, 7, 5, 4, 3, 52, 18, 12, 10, 9, 66, 23, 16, 13, 12, 22, 7, 5, 4, 3, 30, 10, 7, 6, 5, 12, 4, 3, 2, 2, 29, 10, 7, 5, 5, 163, 56, 40, 33, 29, 72, 25, 17, 14, 13, 3, 1, 1, 1, 1, 72, 24, 17, 14, 12, 1, 1, 1, 1, 1, 1, 1, 1, 1, 1, 5, 1, 1, 1, 1, 9, 3, 2, 1, 1, 108, 37, 26, 22, 19, 74, 25, 18, 15, 13, 37, 12, 9, 7, 6, 25, 8, 6, 5, 4, 89, 31, 21, 18, 16, 22, 7, 5, 4, 3, 6, 2, 1, 1, 1, 3, 1, 1, 1, 1, 37, 12, 9, 7, 6, 19, 6, 4, 3, 3, 44, 15, 10, 8, 7, 40, 14, 10, 8, 7, 28, 9, 7, 5, 5, 38, 13, 9, 7, 6, 30, 10, 7, 6, 5, 14, 5, 3, 2, 2, 45, 15, 11, 9, 8, 64, 22, 15, 13, 11, 38, 13, 9, 7, 6, 2, 1, 1, 1, 1, 77, 26, 18, 15, 13, 16, 5, 4, 3, 3, 56, 19, 13, 11, 10, 2, 1, 1, 1, 1, 72, 24, 17, 14, 12, 9, 3, 2, 1, 1, 14, 4, 3, 2, 2, 29, 10, 7, 6, 5, 2, 1, 1, 1, 1, 6, 2, 1, 1, 1, 22, 7, 5, 4, 4, 12, 4, 3, 2, 2, 2, 1, 1, 1, 1, 1, 1, 1, 1, 1, 58, 20, 14, 11, 10, 28, 9, 6, 5, 5, 10, 3, 2, 2, 1, 56, 19, 13, 11, 10, 88, 30, 21, 17, 15, 2, 1, 1, 1, 1, 7, 2, 1, 1, 1, 19, 6, 4, 3, 3, 65, 22, 16, 13, 11, 6, 2, 1, 1, 1, 70, 24, 17, 14, 12, 59, 20, 14, 12, 10, 10, 3, 2, 2, 1, 6, 2, 1, 1, 1, 5, 1, 1, 1, 1, 1, 1, 1, 1, 1, 80, 27, 19, 16, 14, 4, 1, 1, 1, 1, 81, 28, 20, 16, 14, 10, 3, 2, 2, 1, 1, 1, 1, 1, 1, 44, 15, 10, 9, 7, 42, 14, 10, 8, 7, 16, 5, 3, 3, 2, 38, 13, 9, 7, 6, 35, 12, 8, 7, 6, 15, 5, 3, 3, 2, 8, 2, 2, 1, 1, 3, 1, 1, 1, 1, 62, 21, 15, 12, 11, 2, 1, 1, 1, 1, 33, 11, 8, 6, 6, 2, 1, 1, 1, 1, 28, 9, 7, 5, 5, 1, 1, 1, 1, 1, 3, 1, 1, 1, 1, 16, 5, 4, 3, 3, 2, 1, 1, 1, 1, 1, 1, 1, 1, 1, 26, 9, 6, 5, 4, 58, 20, 14, 11, 10, 17, 5, 4, 3, 3, 47, 16, 11, 9, 8, 31, 11, 7, 6, 5, 69, 24, 17, 14, 12, 94, 32, 23, 19, 17, 22, 7, 5, 4, 4, 75, 26, 18, 15, 13, 31, 10, 7, 6, 5, 16, 5, 3, 3, 2, 63, 22, 15, 12, 11, 22, 7, 5, 4, 4, 7, 2, 1, 1, 1, 12, 4, 3, 2, 2, 14, 4, 3, 2, 2, 4, 1, 1, 1, 1, 1, 1, 1, 1, 1, 1, 1, 1, 1, 1, 29, 10, 7, 5, 5, 7, 2, 1, 1, 1, 4, 1, 1, 1, 1, 5, 1, 1, 1, 1, 44, 15, 10, 8, 7, 57, 19, 14, 11, 10, 15, 5, 3, 3, 2, 34, 12, 8, 7, 6, 22, 7, 5, 4, 3, 17, 5, 4, 3, 3, 26, 9, 6, 5, 4, 76, 26, 18, 15, 13, 41, 14, 10, 8, 7, 13, 4, 3, 2, 2, 7, 2, 1, 1, 1, 1, 1, 1, 1, 1, 8, 3, 2, 1, 1, 100, 34, 24, 20, 18, 14, 4, 3, 2, 2, 20, 6, 4, 4, 3, 1, 1, 1, 1, 1, 3, 1, 1, 1, 1, 109, 37, 26, 22, 19, 19, 6, 4, 4, 3, 6, 2, 1, 1, 1, 26, 9, 6, 5, 4, 33, 11, 8, 6, 6, 18, 6, 4, 3, 3, 10, 3, 2, 2, 1, 33, 11, 8, 6, 5, 3, 1, 1, 1, 1, 32, 11, 8, 6, 5, 15, 5, 3, 3, 2, 18, 6, 4, 3, 3, 25, 8, 6, 5, 4, 50, 17, 12, 10, 9, 9, 3, 2, 1, 1, 30, 10, 7, 6, 5, 3, 1, 1, 1, 1, 14, 5, 3, 3, 2, 32, 11, 8, 6, 5, 57, 19, 13, 11, 10, 21, 7, 5, 4, 3, 25, 8, 6, 5, 4, 19, 6, 4, 3, 3, 10, 3, 2, 2, 1, 48, 16, 11, 9, 8, 22, 7, 5, 4, 3, 7, 2, 1, 1, 1, 41, 14, 10, 8, 7, 46, 16, 11, 9, 8, 15, 5, 3, 3, 2, 29, 10, 7, 5, 5, 2, 1, 1, 1, 1, 33, 11, 8, 6, 5, 10, 3, 2, 2, 1, 1, 1, 1, 1, 1, 31, 10, 7, 6, 5, 20, 7, 5, 4, 3, 45, 15, 11, 9, 8, 3, 1, 1, 1, 1, 129, 44, 31, 26, 23, 10, 3, 2, 2, 1, 3, 1, 1, 1, 1, 1, 1, 1, 1, 1, 10, 3, 2, 2, 1, 6, 2, 1, 1, 1, 22, 7, 5, 4, 3, 82, 28, 20, 16, 14, 6, 2, 1, 1, 1, 10, 3, 2, 2, 1, 8, 2, 1, 1, 1, 8, 2, 2, 1, 1, 30, 10, 7, 6, 5, 57, 19, 14, 11, 10, 22, 7, 5, 4, 4, 13, 4, 3, 2, 2, 14, 4, 3, 2, 2, 20, 7, 5, 4, 3]);
energy      = array3d(JOBS,MACHINES,1..SPEED,[79, 92, 95, 96, 96, 82, 94, 96, 97, 97, 86, 96, 97, 98, 98, 90, 97, 98, 98, 99, 77, 92, 94, 95, 96, 86, 95, 97, 97, 98, 71, 89, 92, 93, 94, 83, 94, 96, 97, 97, 80, 93, 95, 96, 96, 77, 91, 94, 95, 96, 30, 66, 74, 78, 81, 64, 86, 90, 91, 93, 87, 96, 97, 98, 98, 58, 83, 87, 90, 91, 64, 86, 89, 91, 92, 99, 99, 99, 99, 99, 72, 89, 92, 94, 95, 66, 86, 90, 92, 93, 71, 89, 92, 93, 94, 73, 89, 93, 94, 95, 81, 94, 96, 96, 97, 97, 99, 99, 99, 99, 44, 75, 81, 85, 86, 87, 96, 97, 98, 98, 94, 98, 99, 99, 99, 72, 89, 92, 94, 95, 26, 63, 72, 76, 79, 93, 98, 99, 99, 99, 75, 91, 93, 95, 95, 79, 92, 95, 96, 96, 72, 89, 92, 94, 95, 49, 78, 84, 86, 88, 89, 97, 98, 98, 98, 93, 98, 99, 99, 99, 87, 96, 97, 98, 98, 70, 88, 92, 93, 94, 71, 89, 92, 94, 95, 87, 96, 97, 98, 98, 31, 67, 75, 79, 81, 86, 95, 97, 97, 98, 88, 96, 98, 98, 98, 72, 89, 93, 94, 95, 98, 99, 99, 99, 99, 87, 96, 97, 98, 98, 68, 87, 91, 93, 94, 69, 88, 91, 93, 94, 92, 98, 98, 99, 99, 95, 99, 99, 99, 99, 85, 95, 96, 97, 98, 90, 97, 98, 98, 99, 71, 89, 92, 94, 94, 95, 99, 99, 99, 99, 90, 97, 98, 98, 99, 61, 85, 89, 91, 92, 78, 92, 94, 95, 96, 57, 82, 87, 89, 90, 37, 71, 79, 82, 84, 63, 85, 89, 91, 92, 95, 99, 99, 99, 99, 78, 92, 94, 95, 96, 85, 95, 96, 97, 97, 87, 96, 97, 98, 98, 70, 88, 92, 93, 94, 63, 86, 89, 91, 92, 74, 90, 93, 94, 95, 97, 99, 99, 99, 99, 73, 90, 93, 94, 95, 99, 99, 99, 99, 99, 95, 99, 99, 99, 99, 51, 79, 85, 87, 88, 87, 96, 97, 98, 98, 96, 99, 99, 99, 99, 74, 90, 93, 94, 95, 96, 99, 99, 99, 99, 76, 91, 94, 95, 96, 93, 98, 99, 99, 99, 99, 99, 99, 99, 99, 44, 75, 81, 85, 86, 99, 99, 99, 99, 99, 83, 94, 96, 97, 97, 90, 97, 98, 98, 99, 76, 91, 94, 95, 95, 61, 85, 89, 91, 92, 79, 92, 95, 96, 96, 80, 93, 95, 96, 96, 97, 99, 99, 99, 99, 72, 89, 93, 94, 95, 95, 98, 99, 99, 99, 84, 94, 96, 97, 97, 99, 99, 99, 99, 99, 91, 97, 98, 99, 99, 60, 84, 88, 90, 91, 81, 93, 95, 96, 97, 81, 93, 95, 96, 97, 89, 96, 98, 98, 98, 63, 86, 89, 91, 92, 92, 98, 98, 99, 99, 97, 99, 99, 99, 99, 81, 93, 95, 96, 97, 92, 98, 99, 99, 99, 68, 87, 91, 93, 94, 95, 99, 99, 99, 99, 67, 87, 91, 92, 93, 78, 92, 95, 96, 96, 99, 99, 99, 99, 99, 81, 93, 95, 96, 97, 75, 91, 94, 95, 95, 48, 78, 84, 86, 88, 67, 87, 91, 92, 93, 70, 88, 92, 93, 94, 84, 94, 96, 97, 97, 99, 99, 99, 99, 99, 65, 86, 90, 92, 93, 99, 99, 99, 99, 99, 81, 93, 95, 96, 97, 81, 93, 95, 96, 97, 97, 99, 99, 99, 99, 99, 99, 99, 99, 99, 80, 93, 95, 96, 97, 84, 95, 96, 97, 97, 91, 97, 98, 99, 99, 99, 99, 99, 99, 99, 77, 92, 94, 95, 96, 97, 99, 99, 99, 99, 99, 99, 99, 99, 99, 92, 98, 98, 99, 99, 91, 97, 98, 99, 99, 95, 99, 99, 99, 99, 99, 99, 99, 99, 99, 67, 87, 91, 93, 93, 87, 96, 97, 98, 98, 93, 98, 99, 99, 99, 82, 94, 96, 97, 97, 93, 98, 99, 99, 99, 61, 84, 88, 90, 92, 84, 95, 96, 97, 97, 77, 92, 94, 95, 96, 39, 72, 80, 82, 85, 89, 97, 98, 98, 98, 94, 98, 99, 99, 99, 37, 71, 78, 81, 84, 80, 93, 95, 96, 96, 35, 70, 77, 81, 83, 41, 74, 81, 83, 85, 73, 90, 93, 94, 95, 99, 99, 99, 99, 99, 78, 92, 94, 96, 96, 93, 98, 99, 99, 99, 97, 99, 99, 99, 99, 89, 96, 98, 98, 98, 95, 99, 99, 99, 99, 69, 88, 91, 93, 94, 49, 78, 84, 86, 88, 99, 99, 99, 99, 99, 93, 98, 99, 99, 99, 92, 98, 99, 99, 99, 97, 99, 99, 99, 99, 45, 76, 82, 86, 86, 93, 98, 99, 99, 99, 89, 97, 98, 98, 98, 99, 99, 99, 99, 99, 93, 98, 99, 99, 99, 57, 82, 87, 89, 91, 42, 74, 81, 84, 86, 76, 91, 94, 95, 96, 91, 97, 98, 99, 99, 99, 99, 99, 99, 99, 60, 84, 88, 90, 91, 96, 99, 99, 99, 99, 92, 98, 99, 99, 99, 81, 93, 95, 96, 97, 93, 98, 99, 99, 99, 61, 85, 89, 91, 92, 83, 94, 96, 97, 97, 84, 95, 96, 97, 97, 54, 81, 86, 88, 90, 53, 80, 86, 88, 89, 93, 98, 99, 99, 99, 99, 99, 99, 99, 99, 75, 91, 93, 95, 95, 92, 98, 99, 99, 99, 99, 99, 99, 99, 99, 98, 99, 99, 99, 99, 86, 96, 97, 98, 98, 97, 99, 99, 99, 99, 94, 98, 99, 99, 99, 70, 88, 92, 93, 94, 86, 95, 97, 97, 98, 97, 99, 99, 99, 99, 94, 98, 99, 99, 99, 50, 79, 85, 86, 88, 99, 99, 99, 99, 99, 77, 91, 94, 95, 96, 77, 91, 94, 95, 96, 74, 90, 93, 94, 95, 80, 93, 95, 96, 96, 67, 87, 91, 92, 93, 64, 86, 90, 91, 92, 77, 91, 94, 95, 96, 95, 99, 99, 99, 99, 71, 89, 92, 94, 94, 92, 98, 98, 99, 99, 62, 85, 89, 91, 92, 81, 93, 95, 96, 97, 98, 99, 99, 99, 99, 53, 81, 86, 88, 89, 85, 95, 97, 97, 98, 47, 77, 83, 86, 87, 99, 99, 99, 99, 99, 98, 99, 99, 99, 99, 69, 88, 92, 93, 94, 99, 99, 99, 99, 99, 86, 95, 97, 97, 98, 65, 86, 90, 92, 93, 86, 96, 97, 98, 98, 95, 99, 99, 99, 99, 62, 85, 89, 91, 92, 98, 99, 99, 99, 99, 92, 97, 98, 99, 99, 94, 98, 99, 99, 99, 85, 95, 97, 97, 98, 91, 97, 98, 98, 99, 53, 81, 86, 88, 89, 67, 87, 91, 92, 93, 73, 90, 93, 94, 95, 97, 99, 99, 99, 99, 78, 92, 95, 96, 96, 61, 84, 88, 90, 92, 51, 79, 85, 87, 89, 75, 91, 94, 95, 95, 93, 98, 99, 99, 99, 92, 98, 98, 99, 99, 77, 91, 94, 95, 96, 71, 89, 92, 94, 94, 91, 97, 98, 99, 99, 74, 90, 93, 95, 95, 83, 94, 96, 97, 97, 63, 86, 89, 91, 92, 74, 90, 93, 94, 95, 53, 81, 86, 88, 89, 97, 99, 99, 99, 99, 62, 85, 89, 91, 92, 46, 77, 83, 86, 87, 80, 93, 95, 96, 97, 99, 99, 99, 99, 99, 99, 99, 99, 99, 99, 87, 96, 97, 98, 98, 86, 95, 97, 97, 98, 85, 95, 96, 97, 97, 74, 90, 93, 94, 95, 69, 88, 92, 93, 94, 64, 86, 90, 91, 92, 89, 97, 98, 98, 99, 78, 92, 94, 95, 96, 88, 96, 97, 98, 98, 71, 89, 92, 94, 94, 81, 93, 95, 96, 97, 79, 92, 95, 96, 96, 88, 96, 97, 98, 98, 77, 92, 94, 95, 96, 59, 83, 88, 90, 91, 76, 91, 94, 95, 96, 97, 99, 99, 99, 99, 98, 99, 99, 99, 99, 74, 90, 93, 95, 95, 89, 97, 98, 98, 98, 91, 97, 98, 99, 99, 56, 82, 87, 89, 90, 60, 84, 88, 90, 91, 65, 86, 90, 92, 93, 89, 97, 98, 98, 98, 77, 91, 94, 95, 96, 79, 92, 95, 96, 96, 94, 98, 99, 99, 99, 79, 93, 95, 96, 96, 22, 60, 69, 74, 76, 99, 99, 99, 99, 99, 93, 98, 99, 99, 99, 90, 97, 98, 98, 99, 66, 86, 90, 92, 93, 86, 95, 97, 97, 98, 99, 99, 99, 99, 99, 91, 97, 98, 98, 99, 63, 86, 89, 91, 92, 71, 89, 92, 93, 94, 92, 98, 98, 99, 99, 71, 89, 92, 94, 94, 91, 97, 98, 98, 99, 96, 99, 99, 99, 99, 33, 69, 77, 80, 82, 93, 98, 99, 99, 99, 78, 92, 95, 96, 96, 52, 80, 86, 87, 89, 77, 91, 94, 95, 96, 86, 96, 97, 98, 98, 87, 96, 97, 98, 98, 99, 99, 99, 99, 99, 98, 99, 99, 99, 99, 86, 95, 97, 97, 98, 51, 80, 85, 87, 89, 94, 98, 99, 99, 99, 59, 83, 88, 90, 91, 65, 86, 90, 92, 93, 96, 99, 99, 99, 99, 91, 97, 98, 99, 99, 86, 96, 97, 98, 98, 60, 84, 88, 90, 91, 77, 92, 94, 95, 96, 63, 86, 89, 91, 92, 84, 94, 96, 97, 97, 80, 93, 95, 96, 96, 86, 95, 97, 97, 98, 93, 98, 99, 99, 99, 78, 92, 94, 95, 96, 80, 93, 95, 96, 97, 59, 83, 88, 90, 91, 51, 79, 85, 87, 88, 80, 93, 95, 96, 97, 74, 90, 93, 94, 95, 88, 96, 97, 98, 98, 74, 90, 93, 95, 95, 19, 57, 67, 71, 74, 48, 77, 84, 86, 87, 97, 99, 99, 99, 99, 48, 78, 84, 86, 88, 99, 99, 99, 99, 99, 99, 99, 99, 99, 99, 95, 99, 99, 99, 99, 91, 97, 98, 99, 99, 33, 69, 77, 80, 82, 47, 77, 83, 86, 87, 69, 88, 91, 93, 94, 77, 92, 94, 95, 96, 41, 73, 81, 83, 85, 80, 93, 95, 96, 97, 94, 98, 99, 99, 99, 97, 99, 99, 99, 99, 69, 88, 91, 93, 94, 82, 94, 96, 97, 97, 64, 86, 90, 92, 93, 67, 86, 90, 92, 93, 75, 91, 93, 95, 95, 68, 87, 91, 93, 94, 74, 90, 93, 94, 95, 86, 95, 97, 98, 98, 63, 86, 89, 91, 92, 52, 80, 86, 87, 89, 68, 87, 91, 93, 94, 98, 99, 99, 99, 99, 46, 77, 83, 86, 87, 85, 95, 96, 97, 97, 57, 82, 87, 89, 90, 98, 99, 99, 99, 99, 48, 78, 84, 86, 88, 91, 97, 98, 99, 99, 86, 96, 97, 98, 98, 74, 90, 93, 94, 95, 98, 99, 99, 99, 99, 94, 98, 99, 99, 99, 80, 93, 95, 96, 96, 88, 96, 97, 98, 98, 98, 99, 99, 99, 99, 99, 99, 99, 99, 99, 55, 81, 86, 89, 90, 75, 91, 94, 95, 95, 90, 97, 98, 98, 99, 57, 82, 87, 89, 90, 41, 74, 81, 84, 86, 98, 99, 99, 99, 99, 93, 98, 99, 99, 99, 82, 94, 96, 97, 97, 52, 80, 85, 87, 89, 94, 98, 99, 99, 99, 49, 78, 84, 86, 88, 55, 81, 86, 88, 90, 90, 97, 98, 98, 99, 94, 98, 99, 99, 99, 95, 99, 99, 99, 99, 99, 99, 99, 99, 99, 44, 76, 82, 85, 86, 96, 99, 99, 99, 99, 44, 75, 81, 85, 86, 90, 97, 98, 98, 99, 99, 99, 99, 99, 99, 64, 86, 90, 91, 93, 65, 86, 90, 92, 93, 85, 95, 97, 97, 98, 68, 87, 91, 93, 94, 70, 88, 92, 93, 94, 86, 95, 97, 97, 98, 92, 98, 98, 99, 99, 97, 99, 99, 99, 99, 53, 81, 86, 88, 89, 98, 99, 99, 99, 99, 71, 89, 92, 94, 94, 98, 99, 99, 99, 99, 75, 91, 93, 95, 95, 99, 99, 99, 99, 99, 97, 99, 99, 99, 99, 85, 95, 96, 97, 97, 98, 99, 99, 99, 99, 99, 99, 99, 99, 99, 77, 91, 94, 95, 96, 55, 81, 86, 89, 90, 84, 95, 96, 97, 97, 62, 85, 89, 91, 92, 73, 89, 93, 94, 95, 50, 78, 84, 86, 88, 39, 72, 79, 82, 84, 80, 93, 95, 96, 96, 47, 77, 83, 86, 87, 73, 90, 93, 94, 95, 85, 95, 97, 97, 98, 53, 80, 86, 88, 89, 80, 93, 95, 96, 96, 93, 98, 99, 99, 99, 88, 96, 97, 98, 98, 86, 96, 97, 98, 98, 96, 99, 99, 99, 99, 99, 99, 99, 99, 99, 99, 99, 99, 99, 99, 74, 90, 93, 95, 95, 93, 98, 99, 99, 99, 96, 99, 99, 99, 99, 95, 99, 99, 99, 99, 64, 86, 90, 92, 93, 56, 82, 86, 89, 90, 86, 95, 97, 97, 98, 71, 88, 92, 93, 94, 80, 93, 95, 96, 97, 84, 95, 96, 97, 97, 77, 91, 94, 95, 96, 46, 77, 83, 86, 87, 66, 86, 90, 92, 93, 87, 96, 97, 98, 98, 93, 98, 99, 99, 99, 99, 99, 99, 99, 99, 92, 97, 98, 99, 99, 36, 71, 78, 81, 83, 86, 96, 97, 98, 98, 81, 94, 96, 96, 97, 99, 99, 99, 99, 99, 97, 99, 99, 99, 99, 33, 69, 77, 80, 82, 82, 94, 96, 96, 97, 94, 98, 99, 99, 99, 77, 91, 94, 95, 96, 71, 89, 92, 94, 94, 83, 94, 96, 97, 97, 90, 97, 98, 98, 99, 71, 89, 92, 94, 95, 97, 99, 99, 99, 99, 72, 89, 92, 94, 95, 86, 95, 97, 97, 98, 83, 94, 96, 97, 97, 77, 92, 94, 95, 96, 60, 84, 88, 90, 91, 91, 97, 98, 99, 99, 74, 90, 93, 94, 95, 97, 99, 99, 99, 99, 86, 95, 97, 97, 98, 72, 89, 92, 94, 95, 56, 82, 87, 89, 90, 81, 93, 95, 96, 97, 77, 92, 94, 95, 96, 82, 94, 96, 97, 97, 90, 97, 98, 98, 99, 61, 85, 89, 91, 92, 80, 93, 95, 96, 97, 93, 98, 99, 99, 99, 66, 86, 90, 92, 93, 63, 85, 89, 91, 92, 86, 95, 97, 97, 98, 74, 90, 93, 95, 95, 98, 99, 99, 99, 99, 71, 89, 92, 94, 95, 90, 97, 98, 98, 99, 99, 99, 99, 99, 99, 73, 90, 93, 94, 95, 81, 93, 95, 96, 97, 63, 86, 89, 91, 92, 97, 99, 99, 99, 99, 27, 64, 73, 77, 79, 90, 97, 98, 98, 99, 97, 99, 99, 99, 99, 99, 99, 99, 99, 99, 90, 97, 98, 98, 99, 94, 98, 99, 99, 99, 80, 93, 95, 96, 97, 44, 75, 81, 85, 86, 94, 98, 99, 99, 99, 90, 97, 98, 98, 99, 92, 98, 99, 99, 99, 92, 98, 98, 99, 99, 74, 90, 93, 94, 95, 56, 82, 86, 89, 90, 80, 93, 95, 96, 96, 87, 96, 97, 98, 98, 86, 96, 97, 98, 98, 81, 93, 95, 96, 97]);
precedence  = array2d(JOBS,MACHINES,[4, 2, 3, 1, 0, 1, 4, 0, 2, 3, 2, 0, 1, 4, 3, 1, 3, 2, 0, 4, 0, 1, 2, 4, 3, 2, 0, 4, 3, 1, 1, 3, 4, 2, 0, 2, 1, 0, 4, 3, 3, 1, 0, 2, 4, 1, 0, 4, 2, 3, 2, 4, 0, 3, 1, 4, 1, 2, 3, 0, 1, 0, 2, 3, 4, 4, 2, 1, 0, 3, 0, 3, 4, 2, 1, 1, 3, 0, 2, 4, 4, 1, 3, 2, 0, 1, 3, 4, 2, 0, 1, 0, 3, 2, 4, 3, 2, 4, 0, 1, 1, 0, 4, 2, 3, 3, 1, 0, 4, 2, 4, 3, 0, 2, 1, 1, 2, 3, 0, 4, 3, 1, 0, 4, 2, 3, 1, 2, 4, 0, 0, 3, 4, 1, 2, 1, 3, 0, 2, 4, 4, 1, 2, 3, 0, 0, 1, 4, 2, 3, 2, 0, 3, 4, 1, 2, 4, 0, 3, 1, 3, 4, 2, 0, 1, 2, 0, 4, 1, 3, 1, 0, 4, 3, 2, 2, 1, 0, 3, 4, 3, 1, 4, 0, 2, 1, 0, 3, 2, 4, 0, 3, 1, 4, 2, 1, 2, 4, 3, 0, 2, 4, 1, 3, 0, 0, 3, 2, 1, 4, 3, 1, 0, 2, 4, 1, 2, 4, 0, 3, 1, 0, 3, 2, 4, 3, 0, 1, 2, 4, 4, 3, 2, 0, 1, 2, 3, 1, 4, 0, 4, 2, 1, 0, 3, 3, 0, 4, 2, 1, 2, 3, 0, 1, 4, 3, 0, 4, 1, 2, 0, 2, 3, 1, 4, 3, 0, 4, 1, 2, 0, 2, 3, 4, 1, 0, 1, 4, 3, 2, 1, 3, 0, 2, 4, 0, 1, 4, 3, 2, 4, 1, 2, 0, 3, 3, 2, 4, 0, 1, 0, 4, 3, 2, 1, 4, 0, 3, 2, 1, 2, 1, 3, 0, 4, 0, 1, 3, 2, 4, 0, 3, 1, 2, 4, 2, 4, 1, 0, 3, 2, 1, 3, 0, 4, 2, 0, 4, 1, 3, 4, 1, 3, 0, 2, 1, 3, 0, 4, 2, 1, 3, 4, 2, 0, 0, 2, 1, 4, 3, 4, 0, 2, 3, 1, 1, 0, 2, 3, 4, 0, 2, 1, 3, 4, 1, 3, 4, 2, 0, 0, 2, 4, 1, 3, 1, 3, 2, 4, 0, 3, 4, 0, 1, 2, 2, 4, 3, 0, 1, 1, 3, 2, 4, 0, 4, 2, 0, 1, 3, 0, 2, 4, 1, 3, 2, 3, 0, 4, 1, 1, 0, 4, 2, 3, 1, 2, 0, 3, 4, 1, 2, 0, 3, 4, 1, 2, 4, 0, 3, 0, 2, 1, 3, 4, 0, 3, 2, 1, 4, 1, 3, 0, 2, 4, 0, 4, 2, 1, 3, 3, 0, 4, 2, 1, 3, 0, 2, 1, 4, 2, 3, 4, 1, 0, 2, 1, 4, 0, 3, 2, 1, 4, 0, 3, 2, 3, 4, 0, 1, 4, 3, 1, 0, 2, 1, 2, 3, 0, 4]);
releaseDate = array2d(JOBS,MACHINES,[107, 98, 103, 96, 90, 112, 127, 100, 115, 121, 65, 30, 62, 110, 97, 92, 115, 93, 80, 124, 30, 35, 36, 58, 57, 132, 70, 150, 142, 127, 95, 109, 127, 108, 90, 81, 73, 70, 94, 91, 106, 91, 90, 101, 109, 52, 50, 80, 68, 78, 78, 100, 70, 86, 72, 69, 29, 54, 66, 20, 15, 10, 19, 27, 38, 120, 82, 81, 80, 90, 100, 116, 117, 115, 109, 85, 87, 60, 86, 88, 138, 110, 126, 120, 100, 101, 106, 119, 102, 100, 36, 0, 43, 38, 49, 101, 99, 120, 90, 97, 62, 60, 78, 72, 77, 103, 74, 50, 108, 86, 110, 109, 80, 108, 98, 75, 82, 83, 70, 84, 72, 70, 60, 77, 71, 53, 50, 52, 56, 30, 70, 89, 90, 76, 77, 24, 31, 0, 29, 37, 145, 85, 90, 115, 70, 100, 101, 117, 113, 115, 106, 90, 108, 128, 104, 62, 64, 30, 63, 59, 138, 139, 119, 90, 112, 83, 80, 88, 82, 86, 31, 30, 52, 45, 37, 119, 102, 100, 146, 147, 26, 24, 27, 20, 25, 101, 90, 103, 102, 106, 70, 111, 89, 112, 102, 81, 87, 108, 98, 80, 50, 66, 31, 59, 30, 70, 108, 88, 87, 111, 92, 74, 70, 76, 118, 32, 33, 56, 30, 55, 2, 0, 18, 9, 37, 133, 70, 75, 100, 135, 60, 58, 52, 40, 50, 47, 54, 32, 59, 10, 90, 70, 46, 40, 89, 68, 50, 69, 62, 53, 93, 108, 80, 82, 120, 53, 30, 64, 40, 46, 90, 107, 123, 106, 124, 130, 100, 132, 102, 116, 30, 41, 49, 54, 32, 10, 70, 87, 85, 71, 22, 36, 20, 25, 37, 70, 73, 161, 160, 82, 103, 60, 65, 50, 95, 60, 59, 68, 40, 43, 30, 52, 34, 33, 31, 137, 90, 131, 116, 112, 41, 37, 49, 30, 50, 90, 119, 147, 139, 155, 20, 54, 32, 53, 103, 33, 70, 32, 30, 34, 85, 74, 106, 40, 118, 57, 50, 68, 51, 58, 50, 19, 34, 10, 30, 99, 131, 90, 157, 111, 104, 141, 155, 123, 100, 50, 55, 54, 77, 69, 30, 0, 8, 9, 1, 103, 90, 105, 131, 132, 70, 76, 75, 94, 111, 130, 134, 135, 133, 90, 0, 3, 44, 2, 26, 93, 130, 112, 133, 90, 110, 112, 80, 101, 102, 96, 99, 97, 90, 91, 34, 41, 35, 42, 30, 129, 102, 50, 67, 119, 80, 124, 139, 101, 134, 85, 86, 80, 90, 84, 49, 40, 52, 50, 51, 43, 54, 40, 68, 76, 21, 31, 0, 37, 61, 94, 95, 102, 50, 96, 20, 25, 24, 26, 54, 80, 102, 87, 81, 108, 89, 106, 80, 101, 107, 30, 46, 43, 36, 45, 50, 20, 53, 45, 38, 92, 50, 61, 52, 96, 38, 51, 70, 31, 30, 18, 16, 35, 0, 30, 53, 52, 67, 50, 66, 154, 155, 159, 100, 105, 36, 33, 25, 20, 26, 45, 67, 72, 40, 75]);
dueDate     = array2d(JOBS,MACHINES,[116, 103, 107, 98, 96, 115, 142, 112, 121, 127, 97, 62, 65, 128, 110, 93, 124, 115, 92, 135, 35, 36, 57, 64, 58, 142, 127, 151, 150, 132, 108, 127, 130, 109, 95, 91, 81, 73, 141, 94, 109, 101, 91, 106, 124, 68, 52, 81, 78, 80, 86, 101, 72, 100, 78, 102, 54, 66, 69, 29, 19, 15, 27, 38, 45, 121, 90, 82, 81, 120, 109, 117, 126, 116, 115, 86, 88, 85, 87, 94, 141, 120, 138, 126, 110, 102, 119, 120, 106, 101, 38, 36, 49, 43, 52, 120, 101, 121, 97, 99, 72, 62, 87, 77, 78, 108, 86, 74, 122, 103, 114, 110, 98, 109, 108, 82, 83, 84, 75, 90, 77, 71, 70, 78, 72, 56, 52, 53, 57, 50, 76, 90, 94, 77, 89, 29, 37, 24, 31, 38, 172, 90, 115, 145, 85, 101, 113, 118, 115, 117, 108, 104, 128, 130, 106, 63, 65, 59, 64, 62, 139, 140, 138, 112, 119, 86, 82, 108, 83, 88, 37, 31, 64, 52, 45, 146, 119, 102, 147, 168, 27, 25, 29, 24, 26, 102, 101, 106, 103, 107, 89, 112, 102, 122, 111, 87, 98, 118, 108, 81, 59, 68, 50, 66, 31, 87, 111, 108, 88, 112, 118, 76, 74, 92, 121, 33, 55, 57, 32, 56, 9, 2, 37, 18, 44, 135, 75, 100, 133, 141, 61, 60, 58, 50, 52, 54, 59, 47, 69, 32, 91, 89, 70, 46, 90, 69, 53, 75, 68, 62, 108, 120, 82, 93, 123, 64, 40, 74, 46, 53, 106, 123, 124, 107, 138, 132, 102, 158, 116, 130, 32, 49, 54, 55, 41, 70, 71, 88, 87, 85, 25, 37, 22, 36, 53, 73, 82, 163, 161, 160, 105, 65, 95, 60, 103, 68, 60, 69, 43, 59, 31, 76, 52, 34, 33, 143, 112, 137, 131, 116, 49, 41, 50, 37, 57, 119, 139, 155, 147, 159, 32, 103, 53, 54, 126, 34, 71, 33, 32, 70, 106, 85, 118, 74, 126, 58, 51, 77, 57, 68, 115, 30, 50, 19, 34, 111, 157, 99, 158, 131, 123, 155, 156, 141, 104, 54, 69, 55, 78, 77, 35, 1, 9, 30, 8, 105, 103, 131, 132, 133, 75, 94, 76, 111, 125, 133, 135, 136, 134, 130, 2, 26, 46, 3, 44, 112, 133, 130, 144, 93, 112, 113, 101, 102, 110, 97, 106, 99, 91, 96, 35, 42, 41, 58, 34, 157, 119, 67, 102, 129, 101, 134, 142, 124, 139, 86, 90, 84, 91, 85, 50, 49, 53, 51, 52, 54, 68, 43, 76, 93, 31, 37, 21, 61, 65, 95, 96, 105, 94, 102, 24, 26, 25, 54, 59, 81, 108, 102, 87, 110, 101, 107, 89, 106, 111, 36, 61, 45, 43, 46, 53, 38, 68, 50, 45, 96, 52, 92, 61, 97, 51, 70, 77, 38, 31, 30, 18, 36, 16, 35, 66, 53, 115, 52, 67, 155, 159, 160, 105, 154, 37, 36, 26, 25, 33, 67, 72, 75, 45, 80]);